Minimize
  - 8 y_0 - 9 y_1 - 5 y_2 - 6 y_3 - 4 y_4 - 5 y_5 - 12 y_6 - 12 y_7 - 9 y_8
   - 8 y_9 - 11 y_10 - 7 y_11 - 10 y_12 - 9 y_13 - 9 y_14 - 10 y_15
   - 12 y_16 - 10 y_17 - 9 y_18 - 10 y_20 - 8 y_21 - 9 y_22 - 7 y_23
   - 3 y_24 - 7 y_25 - 9 y_26 - 5 y_27 - 9 y_28 - 4 y_29 - 9 y_30 - 7 y_31
   - 10 y_32 - 8 y_33 - 8 y_34 - 8 y_35 - 7 y_36 - y_37 - 9 y_38 - 5 y_39
   - 5 y_40 - 6 y_41 - 9 y_42 - 7 y_43 - 11 y_44 - 7 y_45 - 8 y_46
   - 12 y_47 - 8 y_48 - 10 y_49 - 4 y_50 - 11 y_51 - 8 y_52 - 9 y_53
   - 8 y_54 - 3 y_55 - 4 y_56 - 5 y_57 - 11 y_58 - 12 y_59 - 7 y_60
   - 5 y_61 - 11 y_62 - 11 y_63 - 9 y_64 - 10 y_65 - 12 y_66 - 9 y_67
   - 12 y_68 - 10 y_69 - 13 y_70 - 7 y_71 - 6 y_72 - 7 y_73 - 7 y_74
   - 8 y_75 - 9 y_76 - 10 y_77 - 11 y_78 - 9 y_79 - 7 y_80 - 8 y_81
   - 11 y_82 - 8 y_83 - 8 y_84 - 7 y_85 - 11 y_86 - 15 y_87 - 9 y_88
   - 8 y_89 - 7 y_90 - 8 y_91 - 9 y_92 - 10 y_93 - 4 y_94 - 12 y_95
   - 7 y_96 - 10 y_97 - 5 y_98 - 7 y_99 + 820 Constant
Subject To
 c_0: y_33 = 1
 c_1_0: y_0 + y_11 + y_33 + y_52 + y_80 >= 1
 c_1_1: y_1 + y_15 + y_51 + y_73 + y_90 + y_93 >= 1
 c_1_2: y_2 + y_50 + y_74 + y_94 >= 1
 c_1_3: y_3 + y_25 >= 1
 c_1_4: y_4 + y_40 + y_56 + y_72 >= 1
 c_1_5: y_5 + y_23 >= 1
 c_1_6: y_6 + y_7 + y_10 + y_17 + y_68 + y_82 >= 1
 c_1_7: y_6 + y_7 + y_10 + y_17 + y_63 + y_68 + y_82 >= 1
 c_1_8: y_8 + y_12 + y_17 + y_22 + y_44 + y_63 + y_82 + y_84 >= 1
 c_1_9: y_9 + y_60 + y_67 + y_75 + y_81 + y_85 >= 1
 c_1_10: y_6 + y_7 + y_10 + y_17 + y_44 + y_63 + y_68 + y_82 >= 1
 c_1_11: y_0 + y_11 + y_33 + y_52 + y_80 >= 1
 c_1_12: y_8 + y_12 + y_22 + y_44 + y_46 + y_63 >= 1
 c_1_13: y_13 + y_18 + y_76 + y_83 >= 1
 c_1_14: y_14 + y_26 + y_46 >= 1
 c_1_15: y_1 + y_15 + y_42 + y_51 + y_59 + y_95 >= 1
 c_1_16: y_16 + y_78 >= 1
 c_1_17: y_6 + y_7 + y_8 + y_10 + y_17 + y_63 + y_68 + y_82 >= 1
 c_1_18: y_13 + y_18 + y_21 + y_36 + y_45 + y_76 + y_83 >= 1
 c_1_19: y_19 + y_37 >= 1
 c_1_20: y_20 + y_30 >= 1
 c_1_21: y_18 + y_21 + y_36 + y_45 >= 1
 c_1_22: y_8 + y_12 + y_22 + y_46 + y_84 >= 1
 c_1_23: y_5 + y_23 + y_84 >= 1
 c_1_24: y_24 + y_29 >= 1
 c_1_25: y_3 + y_25 + y_28 + y_54 >= 1
 c_1_26: y_14 + y_26 >= 1
 c_1_27: y_27 >= 1
 c_1_28: y_25 + y_28 + y_54 + y_64 + y_65 + y_92 >= 1
 c_1_29: y_24 + y_29 + y_39 + y_57 >= 1
 c_1_30: y_20 + y_30 >= 1
 c_1_31: y_31 + y_34 + y_35 + y_48 + y_61 >= 1
 c_1_32: y_32 + y_78 >= 1
 c_1_33: y_0 + y_11 + y_33 + y_80 + y_88 >= 1
 c_1_34: y_31 + y_34 + y_35 + y_38 + y_48 + y_49 >= 1
 c_1_35: y_31 + y_34 + y_35 + y_38 + y_48 >= 1
 c_1_36: y_18 + y_21 + y_36 + y_41 + y_45 + y_72 >= 1
 c_1_37: y_19 + y_37 >= 1
 c_1_38: y_34 + y_35 + y_38 + y_48 + y_49 >= 1
 c_1_39: y_29 + y_39 + y_57 + y_90 + y_96 >= 1
 c_1_40: y_4 + y_40 + y_41 + y_72 + y_99 >= 1
 c_1_41: y_36 + y_40 + y_41 + y_45 + y_72 + y_83 + y_99 >= 1
 c_1_42: y_15 + y_42 >= 1
 c_1_43: y_43 + y_52 + y_73 + y_90 >= 1
 c_1_44: y_8 + y_10 + y_12 + y_44 + y_63 >= 1
 c_1_45: y_18 + y_21 + y_36 + y_41 + y_45 + y_72 >= 1
 c_1_46: y_12 + y_14 + y_22 + y_46 >= 1
 c_1_47: y_47 + y_62 + y_70 >= 1
 c_1_48: y_31 + y_34 + y_35 + y_38 + y_48 >= 1
 c_1_49: y_34 + y_38 + y_49 >= 1
 c_1_50: y_2 + y_50 + y_94 >= 1
 c_1_51: y_1 + y_15 + y_51 + y_59 + y_95 >= 1
 c_1_52: y_0 + y_11 + y_43 + y_52 + y_80 >= 1
 c_1_53: y_53 >= 1
 c_1_54: y_25 + y_28 + y_54 + y_64 + y_74 + y_92 >= 1
 c_1_55: y_55 + y_61 >= 1
 c_1_56: y_4 + y_56 >= 1
 c_1_57: y_29 + y_39 + y_57 >= 1
 c_1_58: y_58 + y_77 + y_97 >= 1
 c_1_59: y_15 + y_51 + y_59 + y_95 >= 1
 c_1_60: y_9 + y_60 + y_71 + y_75 + y_81 + y_85 >= 1
 c_1_61: y_31 + y_55 + y_61 >= 1
 c_1_62: y_47 + y_62 >= 1
 c_1_63: y_7 + y_8 + y_10 + y_12 + y_17 + y_44 + y_63 + y_68 + y_82 >= 1
 c_1_64: y_28 + y_54 + y_64 + y_65 + y_92 >= 1
 c_1_65: y_28 + y_64 + y_65 + y_92 >= 1
 c_1_66: y_66 + y_69 >= 1
 c_1_67: y_9 + y_67 + y_75 + y_81 + y_85 >= 1
 c_1_68: y_6 + y_7 + y_10 + y_17 + y_63 + y_68 + y_82 >= 1
 c_1_69: y_66 + y_69 >= 1
 c_1_70: y_47 + y_70 >= 1
 c_1_71: y_60 + y_71 + y_81 + y_85 >= 1
 c_1_72: y_4 + y_36 + y_40 + y_41 + y_45 + y_72 >= 1
 c_1_73: y_1 + y_43 + y_73 + y_90 + y_96 >= 1
 c_1_74: y_2 + y_54 + y_74 >= 1
 c_1_75: y_9 + y_60 + y_67 + y_75 + y_81 + y_85 >= 1
 c_1_76: y_13 + y_18 + y_76 + y_83 + y_97 >= 1
 c_1_77: y_58 + y_77 + y_97 >= 1
 c_1_78: y_16 + y_32 + y_78 >= 1
 c_1_79: y_79 >= 1
 c_1_80: y_0 + y_11 + y_33 + y_52 + y_80 >= 1
 c_1_81: y_9 + y_60 + y_67 + y_71 + y_75 + y_81 + y_85 >= 1
 c_1_82: y_6 + y_7 + y_8 + y_10 + y_17 + y_63 + y_68 + y_82 >= 1
 c_1_83: y_13 + y_18 + y_41 + y_76 + y_83 + y_99 >= 1
 c_1_84: y_8 + y_22 + y_23 + y_84 >= 1
 c_1_85: y_9 + y_60 + y_67 + y_71 + y_75 + y_81 + y_85 >= 1
 c_1_86: y_86 >= 1
 c_1_87: y_87 >= 1
 c_1_88: y_33 + y_88 >= 1
 c_1_89: y_89 >= 1
 c_1_90: y_1 + y_39 + y_43 + y_73 + y_90 + y_96 >= 1
 c_1_91: y_91 >= 1
 c_1_92: y_28 + y_54 + y_64 + y_65 + y_92 >= 1
 c_1_93: y_1 + y_93 >= 1
 c_1_94: y_2 + y_50 + y_94 >= 1
 c_1_95: y_15 + y_51 + y_59 + y_95 >= 1
 c_1_96: y_39 + y_73 + y_90 + y_96 >= 1
 c_1_97: y_58 + y_76 + y_77 + y_97 >= 1
 c_1_98: y_98 >= 1
 c_1_99: y_40 + y_41 + y_83 + y_99 >= 1
Bounds
 Constant = 1
Binaries
 y_0 y_1 y_2 y_3 y_4 y_5 y_6 y_7 y_8 y_9 y_10 y_11 y_12 y_13 y_14 y_15 y_16
 y_17 y_18 y_19 y_20 y_21 y_22 y_23 y_24 y_25 y_26 y_27 y_28 y_29 y_30 y_31
 y_32 y_33 y_34 y_35 y_36 y_37 y_38 y_39 y_40 y_41 y_42 y_43 y_44 y_45 y_46
 y_47 y_48 y_49 y_50 y_51 y_52 y_53 y_54 y_55 y_56 y_57 y_58 y_59 y_60 y_61
 y_62 y_63 y_64 y_65 y_66 y_67 y_68 y_69 y_70 y_71 y_72 y_73 y_74 y_75 y_76
 y_77 y_78 y_79 y_80 y_81 y_82 y_83 y_84 y_85 y_86 y_87 y_88 y_89 y_90 y_91
 y_92 y_93 y_94 y_95 y_96 y_97 y_98 y_99
End
